BAYES
361
2 2 2 2 2 2 2 2 2 2 2 2 2 2 2 2 2 2 2 2 2 2 2 2 2 2 2 2 2 2 2 2 2 2 2 2 2 2 2 2 2 2 2 2 2 2 2 2 2 2 2 2 2 2 2 2 2 2 2 2 2 2 2 2 2 2 2 2 2 2 2 2 2 2 2 2 2 2 2 2 2 2 2 2 2 2 2 2 2 2 2 2 2 2 2 2 2 2 2 2 2 2 2 2 2 2 2 2 2 2 2 2 2 2 2 2 2 2 2 2 2 2 2 2 2 2 2 2 2 2 2 2 2 2 2 2 2 2 2 2 2 2 2 2 2 2 2 2 2 2 2 2 2 2 2 2 2 2 2 2 2 2 2 2 2 2 2 2 2 2 2 2 2 2 2 2 2 2 2 2 2 2 2 2 2 2 2 2 2 2 2 2 2 2 2 2 2 2 2 2 2 2 2 2 2 2 2 2 2 2 2 2 2 2 2 2 2 2 2 2 2 2 2 2 2 2 2 2 2 2 2 2 2 2 2 2 2 2 2 2 2 2 2 2 2 2 2 2 2 2 2 2 2 2 2 2 2 2 2 2 2 2 2 2 2 2 2 2 2 2 2 2 2 2 2 2 2 2 2 2 2 2 2 2 2 2 2 2 2 2 2 2 2 2 2 2 2 2 2 2 2 2 2 2 2 2 2 2 2 2 2 2 2 2 2 2 2 2 2 2 2 2 2 2 2 2 2 2 2 2 2 2 2 2 2 2 2 2 2 2 2 2 2 2 2 2 2 2 2 2 2 2 2 2 2 2 2 2 2 2 2
361
1 0
2 0 1
2 1 2
2 2 3
2 3 4
2 4 5
2 5 6
2 6 7
2 7 8
2 8 9
2 9 10
2 10 11
2 11 12
2 12 13
2 13 14
2 14 15
2 15 16
2 16 17
2 17 18
2 0 19
3 1 19 20
3 2 20 21
3 3 21 22
3 4 22 23
3 5 23 24
3 6 24 25
3 7 25 26
3 8 26 27
3 9 27 28
3 10 28 29
3 11 29 30
3 12 30 31
3 13 31 32
3 14 32 33
3 15 33 34
3 16 34 35
3 17 35 36
3 18 36 37
2 19 38
3 20 38 39
3 21 39 40
3 22 40 41
3 23 41 42
3 24 42 43
3 25 43 44
3 26 44 45
3 27 45 46
3 28 46 47
3 29 47 48
3 30 48 49
3 31 49 50
3 32 50 51
3 33 51 52
3 34 52 53
3 35 53 54
3 36 54 55
3 37 55 56
2 38 57
3 39 57 58
3 40 58 59
3 41 59 60
3 42 60 61
3 43 61 62
3 44 62 63
3 45 63 64
3 46 64 65
3 47 65 66
3 48 66 67
3 49 67 68
3 50 68 69
3 51 69 70
3 52 70 71
3 53 71 72
3 54 72 73
3 55 73 74
3 56 74 75
2 57 76
3 58 76 77
3 59 77 78
3 60 78 79
3 61 79 80
3 62 80 81
3 63 81 82
3 64 82 83
3 65 83 84
3 66 84 85
3 67 85 86
3 68 86 87
3 69 87 88
3 70 88 89
3 71 89 90
3 72 90 91
3 73 91 92
3 74 92 93
3 75 93 94
2 76 95
3 77 95 96
3 78 96 97
3 79 97 98
3 80 98 99
3 81 99 100
3 82 100 101
3 83 101 102
3 84 102 103
3 85 103 104
3 86 104 105
3 87 105 106
3 88 106 107
3 89 107 108
3 90 108 109
3 91 109 110
3 92 110 111
3 93 111 112
3 94 112 113
2 95 114
3 96 114 115
3 97 115 116
3 98 116 117
3 99 117 118
3 100 118 119
3 101 119 120
3 102 120 121
3 103 121 122
3 104 122 123
3 105 123 124
3 106 124 125
3 107 125 126
3 108 126 127
3 109 127 128
3 110 128 129
3 111 129 130
3 112 130 131
3 113 131 132
2 114 133
3 115 133 134
3 116 134 135
3 117 135 136
3 118 136 137
3 119 137 138
3 120 138 139
3 121 139 140
3 122 140 141
3 123 141 142
3 124 142 143
3 125 143 144
3 126 144 145
3 127 145 146
3 128 146 147
3 129 147 148
3 130 148 149
3 131 149 150
3 132 150 151
2 133 152
3 134 152 153
3 135 153 154
3 136 154 155
3 137 155 156
3 138 156 157
3 139 157 158
3 140 158 159
3 141 159 160
3 142 160 161
3 143 161 162
3 144 162 163
3 145 163 164
3 146 164 165
3 147 165 166
3 148 166 167
3 149 167 168
3 150 168 169
3 151 169 170
2 152 171
3 153 171 172
3 154 172 173
3 155 173 174
3 156 174 175
3 157 175 176
3 158 176 177
3 159 177 178
3 160 178 179
3 161 179 180
3 162 180 181
3 163 181 182
3 164 182 183
3 165 183 184
3 166 184 185
3 167 185 186
3 168 186 187
3 169 187 188
3 170 188 189
2 171 190
3 172 190 191
3 173 191 192
3 174 192 193
3 175 193 194
3 176 194 195
3 177 195 196
3 178 196 197
3 179 197 198
3 180 198 199
3 181 199 200
3 182 200 201
3 183 201 202
3 184 202 203
3 185 203 204
3 186 204 205
3 187 205 206
3 188 206 207
3 189 207 208
2 190 209
3 191 209 210
3 192 210 211
3 193 211 212
3 194 212 213
3 195 213 214
3 196 214 215
3 197 215 216
3 198 216 217
3 199 217 218
3 200 218 219
3 201 219 220
3 202 220 221
3 203 221 222
3 204 222 223
3 205 223 224
3 206 224 225
3 207 225 226
3 208 226 227
2 209 228
3 210 228 229
3 211 229 230
3 212 230 231
3 213 231 232
3 214 232 233
3 215 233 234
3 216 234 235
3 217 235 236
3 218 236 237
3 219 237 238
3 220 238 239
3 221 239 240
3 222 240 241
3 223 241 242
3 224 242 243
3 225 243 244
3 226 244 245
3 227 245 246
2 228 247
3 229 247 248
3 230 248 249
3 231 249 250
3 232 250 251
3 233 251 252
3 234 252 253
3 235 253 254
3 236 254 255
3 237 255 256
3 238 256 257
3 239 257 258
3 240 258 259
3 241 259 260
3 242 260 261
3 243 261 262
3 244 262 263
3 245 263 264
3 246 264 265
2 247 266
3 248 266 267
3 249 267 268
3 250 268 269
3 251 269 270
3 252 270 271
3 253 271 272
3 254 272 273
3 255 273 274
3 256 274 275
3 257 275 276
3 258 276 277
3 259 277 278
3 260 278 279
3 261 279 280
3 262 280 281
3 263 281 282
3 264 282 283
3 265 283 284
2 266 285
3 267 285 286
3 268 286 287
3 269 287 288
3 270 288 289
3 271 289 290
3 272 290 291
3 273 291 292
3 274 292 293
3 275 293 294
3 276 294 295
3 277 295 296
3 278 296 297
3 279 297 298
3 280 298 299
3 281 299 300
3 282 300 301
3 283 301 302
3 284 302 303
2 285 304
3 286 304 305
3 287 305 306
3 288 306 307
3 289 307 308
3 290 308 309
3 291 309 310
3 292 310 311
3 293 311 312
3 294 312 313
3 295 313 314
3 296 314 315
3 297 315 316
3 298 316 317
3 299 317 318
3 300 318 319
3 301 319 320
3 302 320 321
3 303 321 322
2 304 323
3 305 323 324
3 306 324 325
3 307 325 326
3 308 326 327
3 309 327 328
3 310 328 329
3 311 329 330
3 312 330 331
3 313 331 332
3 314 332 333
3 315 333 334
3 316 334 335
3 317 335 336
3 318 336 337
3 319 337 338
3 320 338 339
3 321 339 340
3 322 340 341
2 323 342
3 324 342 343
3 325 343 344
3 326 344 345
3 327 345 346
3 328 346 347
3 329 347 348
3 330 348 349
3 331 349 350
3 332 350 351
3 333 351 352
3 334 352 353
3 335 353 354
3 336 354 355
3 337 355 356
3 338 356 357
3 339 357 358
3 340 358 359
3 341 359 360

2
0.75524 0.24476
4
0.0 1.0 1.0 0.0
4
0.0 1.0 1.0 0.0
4
0.0 1.0 1.0 0.0
4
0.584374 0.415626 0.8544 0.1456
4
0.0 1.0 1.0 0.0
4
0.0 1.0 1.0 0.0
4
0.0 1.0 1.0 0.0
4
1.0 0.0 0.0 1.0
4
0.0 1.0 1.0 0.0
4
0.0 1.0 1.0 0.0
4
0.0 1.0 1.0 0.0
4
1.0 0.0 0.0 1.0
4
1.0 0.0 0.0 1.0
4
0.540014 0.459986 0.448794 0.551206
4
1.0 0.0 0.0 1.0
4
0.0 1.0 1.0 0.0
4
0.0 1.0 1.0 0.0
4
0.0 1.0 1.0 0.0
4
0.55743 0.44257 0.117062 0.882938
8
1.0 0.0 1.0 0.0 0.0 1.0 1.0 0.0
8
0.0 1.0 1.0 0.0 0.0 1.0 0.0 1.0
8
0.0 1.0 0.0 1.0 0.0 1.0 1.0 0.0
8
1.0 0.0 1.0 0.0 1.0 0.0 0.0 1.0
8
0.0 1.0 1.0 0.0 1.0 0.0 1.0 0.0
8
0.140783 0.859217 0.379563 0.620437 0.938622 0.0613777 0.698213 0.301787
8
0.0 1.0 1.0 0.0 1.0 0.0 0.0 1.0
8
1.0 0.0 0.0 1.0 1.0 0.0 0.0 1.0
8
0.873528 0.126472 0.835102 0.164898 0.27958 0.72042 0.718811 0.281189
8
1.0 0.0 0.0 1.0 1.0 0.0 1.0 0.0
8
0.0 1.0 1.0 0.0 0.0 1.0 1.0 0.0
8
0.0 1.0 1.0 0.0 1.0 0.0 1.0 0.0
8
0.306546 0.693454 0.209264 0.790736 0.323249 0.676751 0.493514 0.506486
8
1.0 0.0 1.0 0.0 0.0 1.0 0.0 1.0
8
1.0 0.0 1.0 0.0 0.0 1.0 1.0 0.0
8
1.0 0.0 1.0 0.0 0.0 1.0 0.0 1.0
8
0.521907 0.478093 0.153741 0.846259 0.842173 0.157827 0.646746 0.353254
8
1.0 0.0 1.0 0.0 1.0 0.0 0.0 1.0
4
0.700566 0.299434 0.929562 0.0704377
8
1.0 0.0 0.0 1.0 0.0 1.0 0.0 1.0
8
0.0465947 0.953405 0.398302 0.601698 0.344859 0.655141 0.0713821 0.928618
8
1.0 0.0 1.0 0.0 0.0 1.0 0.0 1.0
8
1.0 0.0 0.0 1.0 0.0 1.0 1.0 0.0
8
0.0 1.0 1.0 0.0 0.0 1.0 1.0 0.0
8
1.0 0.0 0.0 1.0 0.0 1.0 1.0 0.0
8
1.0 0.0 1.0 0.0 0.0 1.0 0.0 1.0
8
0.0 1.0 1.0 0.0 1.0 0.0 0.0 1.0
8
0.0 1.0 1.0 0.0 0.0 1.0 0.0 1.0
8
0.0 1.0 1.0 0.0 1.0 0.0 0.0 1.0
8
0.0 1.0 1.0 0.0 0.0 1.0 0.0 1.0
8
1.0 0.0 0.0 1.0 0.0 1.0 1.0 0.0
8
0.0 1.0 1.0 0.0 0.0 1.0 0.0 1.0
8
0.0 1.0 1.0 0.0 0.0 1.0 1.0 0.0
8
0.907592 0.0924082 0.822882 0.177118 0.693578 0.306422 0.398356 0.601644
8
0.91372 0.0862799 0.246837 0.753163 0.627329 0.372671 0.555694 0.444306
8
0.0 1.0 0.0 1.0 0.0 1.0 1.0 0.0
8
0.0 1.0 1.0 0.0 1.0 0.0 1.0 0.0
4
1.0 0.0 0.0 1.0
8
1.0 0.0 0.0 1.0 1.0 0.0 1.0 0.0
8
1.0 0.0 0.0 1.0 0.0 1.0 1.0 0.0
8
0.0 1.0 1.0 0.0 0.0 1.0 1.0 0.0
8
1.0 0.0 1.0 0.0 0.0 1.0 1.0 0.0
8
0.296435 0.703565 0.934462 0.0655375 0.0371688 0.962831 0.799463 0.200537
8
1.0 0.0 0.0 1.0 1.0 0.0 0.0 1.0
8
0.0 1.0 1.0 0.0 1.0 0.0 1.0 0.0
8
0.0 1.0 1.0 0.0 0.0 1.0 0.0 1.0
8
1.0 0.0 0.0 1.0 1.0 0.0 1.0 0.0
8
0.0 1.0 1.0 0.0 0.0 1.0 1.0 0.0
8
0.573572 0.426428 0.0456945 0.954306 0.85462 0.14538 0.610741 0.389259
8
0.400634 0.599366 0.729276 0.270724 0.781665 0.218335 0.965327 0.0346735
8
0.0 1.0 0.0 1.0 1.0 0.0 1.0 0.0
8
0.874438 0.125562 0.72334 0.27666 0.3031 0.6969 0.883876 0.116124
8
0.0 1.0 0.0 1.0 1.0 0.0 1.0 0.0
8
0.683905 0.316095 0.82395 0.17605 0.60006 0.39994 0.370766 0.629234
8
1.0 0.0 1.0 0.0 0.0 1.0 1.0 0.0
8
1.0 0.0 0.0 1.0 1.0 0.0 1.0 0.0
4
1.0 0.0 0.0 1.0
8
0.0 1.0 0.0 1.0 1.0 0.0 1.0 0.0
8
1.0 0.0 0.0 1.0 0.0 1.0 1.0 0.0
8
0.0 1.0 0.0 1.0 0.0 1.0 1.0 0.0
8
0.354065 0.645935 0.553318 0.446682 0.419641 0.580359 0.874283 0.125717
8
1.0 0.0 1.0 0.0 0.0 1.0 0.0 1.0
8
0.0 1.0 0.0 1.0 1.0 0.0 1.0 0.0
8
1.0 0.0 0.0 1.0 0.0 1.0 0.0 1.0
8
1.0 0.0 0.0 1.0 0.0 1.0 1.0 0.0
8
0.0 1.0 1.0 0.0 1.0 0.0 0.0 1.0
8
0.112073 0.887927 0.67811 0.32189 0.501745 0.498255 0.531714 0.468286
8
1.0 0.0 1.0 0.0 1.0 0.0 0.0 1.0
8
0.0 1.0 0.0 1.0 0.0 1.0 1.0 0.0
8
1.0 0.0 0.0 1.0 1.0 0.0 0.0 1.0
8
0.0 1.0 1.0 0.0 1.0 0.0 1.0 0.0
8
1.0 0.0 0.0 1.0 1.0 0.0 0.0 1.0
8
0.0 1.0 1.0 0.0 1.0 0.0 0.0 1.0
8
0.784804 0.215196 0.0290507 0.970949 0.554499 0.445501 0.836941 0.163059
8
1.0 0.0 0.0 1.0 0.0 1.0 1.0 0.0
4
1.0 0.0 0.0 1.0
8
1.0 0.0 1.0 0.0 0.0 1.0 0.0 1.0
8
0.0 1.0 1.0 0.0 1.0 0.0 0.0 1.0
8
1.0 0.0 0.0 1.0 1.0 0.0 0.0 1.0
8
0.0 1.0 1.0 0.0 1.0 0.0 1.0 0.0
8
1.0 0.0 0.0 1.0 0.0 1.0 1.0 0.0
8
0.0 1.0 1.0 0.0 1.0 0.0 0.0 1.0
8
0.0 1.0 0.0 1.0 0.0 1.0 1.0 0.0
8
1.0 0.0 1.0 0.0 0.0 1.0 0.0 1.0
8
1.0 0.0 0.0 1.0 1.0 0.0 0.0 1.0
8
0.0 1.0 0.0 1.0 1.0 0.0 1.0 0.0
8
0.0 1.0 0.0 1.0 0.0 1.0 1.0 0.0
8
1.0 0.0 0.0 1.0 1.0 0.0 1.0 0.0
8
1.0 0.0 1.0 0.0 0.0 1.0 0.0 1.0
8
1.0 0.0 1.0 0.0 0.0 1.0 0.0 1.0
8
1.0 0.0 0.0 1.0 0.0 1.0 1.0 0.0
8
0.0 1.0 1.0 0.0 1.0 0.0 1.0 0.0
8
1.0 0.0 1.0 0.0 0.0 1.0 0.0 1.0
8
0.0 1.0 1.0 0.0 0.0 1.0 1.0 0.0
4
0.284406 0.715594 0.780659 0.219341
8
0.473555 0.526445 0.714097 0.285903 0.35573 0.64427 0.0768342 0.923166
8
0.0 1.0 1.0 0.0 0.0 1.0 1.0 0.0
8
0.0 1.0 0.0 1.0 1.0 0.0 1.0 0.0
8
0.0 1.0 0.0 1.0 1.0 0.0 1.0 0.0
8
0.0 1.0 1.0 0.0 0.0 1.0 0.0 1.0
8
1.0 0.0 0.0 1.0 1.0 0.0 0.0 1.0
8
1.0 0.0 1.0 0.0 0.0 1.0 1.0 0.0
8
0.0 1.0 1.0 0.0 1.0 0.0 1.0 0.0
8
0.0 1.0 0.0 1.0 1.0 0.0 1.0 0.0
8
1.0 0.0 1.0 0.0 0.0 1.0 1.0 0.0
8
0.0 1.0 0.0 1.0 0.0 1.0 1.0 0.0
8
1.0 0.0 1.0 0.0 0.0 1.0 1.0 0.0
8
0.917259 0.0827412 0.113921 0.886079 0.836398 0.163602 0.375451 0.624549
8
0.0 1.0 1.0 0.0 0.0 1.0 1.0 0.0
8
1.0 0.0 1.0 0.0 1.0 0.0 0.0 1.0
8
0.0 1.0 1.0 0.0 0.0 1.0 0.0 1.0
8
0.31574 0.68426 0.262924 0.737076 0.210515 0.789485 0.651132 0.348868
8
0.779395 0.220605 0.395055 0.604945 0.652095 0.347905 0.884018 0.115982
4
1.0 0.0 0.0 1.0
8
0.164565 0.835435 0.944805 0.0551954 0.197993 0.802007 0.38096 0.61904
8
1.0 0.0 1.0 0.0 1.0 0.0 0.0 1.0
8
0.0 1.0 1.0 0.0 1.0 0.0 0.0 1.0
8
1.0 0.0 1.0 0.0 0.0 1.0 0.0 1.0
8
0.741222 0.258778 0.912304 0.0876958 0.486434 0.513566 0.578521 0.421479
8
1.0 0.0 0.0 1.0 0.0 1.0 0.0 1.0
8
0.573657 0.426343 0.374221 0.625779 0.744774 0.255226 0.771649 0.228351
8
0.420474 0.579526 0.404855 0.595145 0.531203 0.468797 0.371528 0.628472
8
0.106107 0.893893 0.598301 0.401699 0.781996 0.218004 0.112117 0.887883
8
1.0 0.0 0.0 1.0 1.0 0.0 1.0 0.0
8
1.0 0.0 0.0 1.0 1.0 0.0 1.0 0.0
8
1.0 0.0 0.0 1.0 1.0 0.0 1.0 0.0
8
1.0 0.0 1.0 0.0 0.0 1.0 0.0 1.0
8
1.0 0.0 0.0 1.0 1.0 0.0 1.0 0.0
8
0.0 1.0 1.0 0.0 0.0 1.0 0.0 1.0
8
0.0 1.0 1.0 0.0 1.0 0.0 0.0 1.0
8
0.0 1.0 1.0 0.0 0.0 1.0 1.0 0.0
8
0.593177 0.406823 0.341249 0.658751 0.768613 0.231387 0.865368 0.134632
4
0.0 1.0 1.0 0.0
8
0.51979 0.48021 0.456864 0.543136 0.754462 0.245538 0.667539 0.332461
8
0.0 1.0 1.0 0.0 0.0 1.0 0.0 1.0
8
1.0 0.0 0.0 1.0 1.0 0.0 0.0 1.0
8
0.0 1.0 0.0 1.0 1.0 0.0 0.0 1.0
8
1.0 0.0 0.0 1.0 1.0 0.0 0.0 1.0
8
0.0 1.0 0.0 1.0 1.0 0.0 0.0 1.0
8
1.0 0.0 0.0 1.0 0.0 1.0 0.0 1.0
8
0.833774 0.166226 0.0636786 0.936321 0.447711 0.552289 0.434578 0.565422
8
1.0 0.0 0.0 1.0 0.0 1.0 1.0 0.0
8
0.0 1.0 1.0 0.0 1.0 0.0 1.0 0.0
8
0.0 1.0 0.0 1.0 0.0 1.0 1.0 0.0
8
0.626328 0.373672 0.326788 0.673212 0.509568 0.490432 0.713772 0.286228
8
0.0 1.0 0.0 1.0 0.0 1.0 1.0 0.0
8
1.0 0.0 1.0 0.0 1.0 0.0 0.0 1.0
8
0.0666456 0.933354 0.344515 0.655485 0.372765 0.627235 0.54911 0.45089
8
1.0 0.0 0.0 1.0 1.0 0.0 1.0 0.0
8
0.0 1.0 1.0 0.0 0.0 1.0 0.0 1.0
8
1.0 0.0 1.0 0.0 0.0 1.0 0.0 1.0
4
0.0 1.0 1.0 0.0
8
0.0 1.0 0.0 1.0 0.0 1.0 1.0 0.0
8
1.0 0.0 0.0 1.0 0.0 1.0 1.0 0.0
8
1.0 0.0 0.0 1.0 0.0 1.0 1.0 0.0
8
0.0 1.0 1.0 0.0 0.0 1.0 1.0 0.0
8
1.0 0.0 1.0 0.0 0.0 1.0 1.0 0.0
8
0.987886 0.012114 0.454538 0.545462 0.980769 0.0192305 0.935715 0.0642846
8
1.0 0.0 1.0 0.0 1.0 0.0 0.0 1.0
8
0.214655 0.785345 0.8931 0.1069 0.673178 0.326822 0.226371 0.773629
8
0.756851 0.243149 0.610853 0.389147 0.542061 0.457939 0.54577 0.45423
8
0.0 1.0 1.0 0.0 0.0 1.0 1.0 0.0
8
0.699647 0.300353 0.293521 0.706479 0.199001 0.800999 0.24249 0.75751
8
0.965647 0.0343526 0.230375 0.769625 0.291474 0.708526 0.946417 0.0535831
8
0.0 1.0 1.0 0.0 0.0 1.0 1.0 0.0
8
1.0 0.0 0.0 1.0 0.0 1.0 1.0 0.0
8
0.442932 0.557068 0.760007 0.239993 0.485013 0.514987 0.984993 0.0150075
8
1.0 0.0 0.0 1.0 0.0 1.0 1.0 0.0
8
0.0 1.0 1.0 0.0 0.0 1.0 0.0 1.0
8
0.943563 0.0564368 0.230736 0.769264 0.14705 0.85295 0.88998 0.11002
4
0.0 1.0 1.0 0.0
8
0.0 1.0 0.0 1.0 1.0 0.0 0.0 1.0
8
1.0 0.0 1.0 0.0 1.0 0.0 0.0 1.0
8
0.121602 0.878398 0.191703 0.808297 0.680544 0.319456 0.695058 0.304942
8
1.0 0.0 0.0 1.0 0.0 1.0 1.0 0.0
8
0.0 1.0 1.0 0.0 1.0 0.0 1.0 0.0
8
1.0 0.0 0.0 1.0 1.0 0.0 0.0 1.0
8
1.0 0.0 0.0 1.0 0.0 1.0 0.0 1.0
8
1.0 0.0 1.0 0.0 0.0 1.0 0.0 1.0
8
1.0 0.0 1.0 0.0 0.0 1.0 0.0 1.0
8
0.0 1.0 1.0 0.0 1.0 0.0 1.0 0.0
8
0.0500566 0.949943 0.209368 0.790632 0.631455 0.368545 0.777793 0.222207
8
1.0 0.0 1.0 0.0 0.0 1.0 0.0 1.0
8
0.338693 0.661307 0.884022 0.115978 0.859819 0.140181 0.666051 0.333949
8
0.0258502 0.97415 0.405776 0.594224 0.226041 0.773959 0.0778079 0.922192
8
0.0 1.0 1.0 0.0 1.0 0.0 1.0 0.0
8
0.0 1.0 0.0 1.0 1.0 0.0 1.0 0.0
8
1.0 0.0 1.0 0.0 1.0 0.0 0.0 1.0
8
0.894239 0.105761 0.48579 0.51421 0.700211 0.299789 0.443783 0.556217
4
0.519917 0.480083 0.782476 0.217524
8
0.379736 0.620264 0.448527 0.551473 0.831536 0.168464 0.405586 0.594414
8
0.0575771 0.942423 0.483394 0.516606 0.897185 0.102815 0.644535 0.355465
8
0.257716 0.742284 0.287469 0.712531 0.407906 0.592094 0.674664 0.325336
8
1.0 0.0 0.0 1.0 1.0 0.0 0.0 1.0
8
0.0 1.0 0.0 1.0 1.0 0.0 0.0 1.0
8
1.0 0.0 0.0 1.0 1.0 0.0 0.0 1.0
8
0.221376 0.778624 0.0624484 0.937552 0.253066 0.746934 0.052912 0.947088
8
0.0 1.0 0.0 1.0 0.0 1.0 1.0 0.0
8
0.262269 0.737731 0.0424936 0.957506 0.164196 0.835804 0.936933 0.0630667
8
1.0 0.0 0.0 1.0 1.0 0.0 1.0 0.0
8
0.0 1.0 0.0 1.0 1.0 0.0 0.0 1.0
8
1.0 0.0 0.0 1.0 0.0 1.0 0.0 1.0
8
0.616873 0.383127 0.231657 0.768343 0.974121 0.0258789 0.0849071 0.915093
8
1.0 0.0 0.0 1.0 0.0 1.0 0.0 1.0
8
0.605849 0.394151 0.882128 0.117872 0.956822 0.0431782 0.542783 0.457217
8
0.0 1.0 0.0 1.0 0.0 1.0 1.0 0.0
8
0.0 1.0 1.0 0.0 1.0 0.0 0.0 1.0
8
1.0 0.0 0.0 1.0 1.0 0.0 1.0 0.0
4
1.0 0.0 0.0 1.0
8
0.0 1.0 0.0 1.0 1.0 0.0 1.0 0.0
8
1.0 0.0 1.0 0.0 0.0 1.0 1.0 0.0
8
0.993332 0.00666814 0.162075 0.837925 0.171323 0.828677 0.223701 0.776299
8
0.0 1.0 1.0 0.0 0.0 1.0 0.0 1.0
8
1.0 0.0 0.0 1.0 0.0 1.0 1.0 0.0
8
1.0 0.0 0.0 1.0 0.0 1.0 1.0 0.0
8
1.0 0.0 1.0 0.0 1.0 0.0 0.0 1.0
8
1.0 0.0 1.0 0.0 1.0 0.0 0.0 1.0
8
0.133923 0.866077 0.797841 0.202159 0.148525 0.851475 0.305246 0.694754
8
0.0 1.0 0.0 1.0 1.0 0.0 0.0 1.0
8
1.04597 5.0 0.99999 0.82897 0.17103 0.0173786 0.982621 0.985526
8
0.0 1.0 0.0 1.0 1.0 0.0 1.0 0.0
8
1.0 0.0 0.0 1.0 0.0 1.0 1.0 0.0
8
0.0 1.0 0.0 1.0 1.0 0.0 1.0 0.0
8
1.0 0.0 1.0 0.0 0.0 1.0 0.0 1.0
8
0.0 1.0 1.0 0.0 0.0 1.0 1.0 0.0
8
1.0 0.0 0.0 1.0 1.0 0.0 1.0 0.0
8
0.0 1.0 0.0 1.0 0.0 1.0 1.0 0.0
4
0.775844 0.224156 0.381639 0.618361
8
0.0 1.0 1.0 0.0 1.0 0.0 0.0 1.0
8
1.0 0.0 0.0 1.0 0.0 1.0 0.0 1.0
8
0.0 1.0 0.0 1.0 1.0 0.0 0.0 1.0
8
1.0 0.0 1.0 0.0 0.0 1.0 0.0 1.0
8
0.812953 0.187047 0.0990338 0.900966 0.199349 0.800651 0.304696 0.695304
8
0.272898 0.727102 0.0895284 0.910472 0.623108 0.376892 0.654537 0.345463
8
1.0 0.0 0.0 1.0 1.0 0.0 1.0 0.0
8
0.807897 0.192103 0.369515 0.630485 0.858231 0.141769 0.363365 0.636635
8
1.0 0.0 0.0 1.0 1.0 0.0 0.0 1.0
8
0.73432 0.26568 0.502501 0.497499 0.481186 0.518814 0.165013 0.834987
8
1.0 0.0 1.0 0.0 1.0 0.0 0.0 1.0
8
0.0 1.0 0.0 1.0 1.0 0.0 0.0 1.0
8
1.0 0.0 1.0 0.0 1.0 0.0 0.0 1.0
8
1.0 0.0 0.0 1.0 1.0 0.0 0.0 1.0
8
1.0 0.0 1.0 0.0 0.0 1.0 0.0 1.0
8
0.861892 0.138108 0.549741 0.450259 0.257837 0.742163 0.343077 0.656923
8
1.0 0.0 0.0 1.0 0.0 1.0 0.0 1.0
8
0.0 1.0 0.0 1.0 0.0 1.0 1.0 0.0
4
1.0 0.0 0.0 1.0
8
0.0 1.0 0.0 1.0 1.0 0.0 1.0 0.0
8
0.479252 0.520748 0.94877 0.05123 0.633357 0.366643 0.933894 0.0661059
8
0.0 1.0 1.0 0.0 0.0 1.0 0.0 1.0
8
1.0 0.0 0.0 1.0 0.0 1.0 0.0 1.0
8
1.0 0.0 0.0 1.0 0.0 1.0 0.0 1.0
8
0.0 1.0 0.0 1.0 1.0 0.0 0.0 1.0
8
1.0 0.0 0.0 1.0 1.0 0.0 1.0 0.0
8
0.149824 0.850176 0.0651396 0.93486 0.998991 0.00100918 0.577808 0.422192
8
0.878242 0.121758 0.761128 0.238872 0.700123 0.299877 0.307234 0.692766
8
1.0 0.0 0.0 1.0 0.0 1.0 0.0 1.0
8
0.0 1.0 0.0 1.0 1.0 0.0 0.0 1.0
8
1.0 0.0 0.0 1.0 0.0 1.0 1.0 0.0
8
0.520298 0.479702 0.174739 0.825261 0.910778 0.0892221 0.0367659 0.963234
8
0.0 1.0 1.0 0.0 1.0 0.0 1.0 0.0
8
0.322809 0.677191 0.723172 0.276828 0.525527 0.474473 0.0229319 0.977068
8
1.0 0.0 0.0 1.0 1.0 0.0 1.0 0.0
8
0.408 0.592 0.400165 0.599835 0.868136 0.131864 0.367703 0.632297
8
0.126861 0.873139 0.202537 0.797463 0.859909 0.140091 0.649606 0.350394
4
1.0 0.0 0.0 1.0
8
0.0377018 0.962298 0.416973 0.583027 0.130329 0.869671 0.883641 0.116359
8
1.0 0.0 0.0 1.0 0.0 1.0 1.0 0.0
8
1.0 0.0 1.0 0.0 0.0 1.0 1.0 0.0
8
0.814746 0.185254 0.933785 0.0662145 0.732372 0.267628 0.222747 0.777253
8
0.0 1.0 1.0 0.0 1.0 0.0 1.0 0.0
8
0.101204 0.898796 0.376975 0.623025 0.919911 0.0800886 0.481411 0.518589
8
0.0 1.0 1.0 0.0 0.0 1.0 1.0 0.0
8
1.0 0.0 0.0 1.0 0.0 1.0 1.0 0.0
8
0.0 1.0 0.0 1.0 1.0 0.0 1.0 0.0
8
1.0 0.0 1.0 0.0 1.0 0.0 0.0 1.0
8
1.0 0.0 1.0 0.0 0.0 1.0 0.0 1.0
8
0.776554 0.223446 0.904478 0.0955225 0.725542 0.274458 0.257965 0.742035
8
1.0 0.0 0.0 1.0 0.0 1.0 0.0 1.0
8
1.0 0.0 0.0 1.0 1.0 0.0 0.0 1.0
8
1.0 0.0 0.0 1.0 0.0 1.0 0.0 1.0
8
0.0 1.0 0.0 1.0 1.0 0.0 1.0 0.0
8
1.0 0.0 0.0 1.0 0.0 1.0 1.0 0.0
8
1.0 0.0 0.0 1.0 1.0 0.0 0.0 1.0
4
0.624305 0.375695 0.524914 0.475086
8
0.0617503 0.93825 0.0493225 0.950677 0.657465 0.342535 0.332297 0.667703
8
0.0 1.0 1.0 0.0 1.0 0.0 0.0 1.0
8
1.0 0.0 0.0 1.0 0.0 1.0 1.0 0.0
8
1.0 0.0 0.0 1.0 0.0 1.0 0.0 1.0
8
0.0 1.0 0.0 1.0 1.0 0.0 1.0 0.0
8
0.0 1.0 1.0 0.0 1.0 0.0 1.0 0.0
8
1.0 0.0 0.0 1.0 0.0 1.0 0.0 1.0
8
0.0 1.0 1.0 0.0 0.0 1.0 1.0 0.0
8
1.0 0.0 0.0 1.0 1.0 0.0 1.0 0.0
8
0.0 1.0 1.0 0.0 0.0 1.0 0.0 1.0
8
0.0081171 0.991883 0.826911 0.173089 0.779041 0.220959 0.960715 0.0392849
8
1.0 0.0 0.0 1.0 1.0 0.0 1.0 0.0
8
0.0 1.0 1.0 0.0 0.0 1.0 0.0 1.0
8
0.0 1.0 0.0 1.0 1.0 0.0 1.0 0.0
8
0.36585 0.63415 0.806146 0.193854 0.741964 0.258036 0.0996446 0.900355
8
0.0 1.0 1.0 0.0 0.0 1.0 0.0 1.0
8
1.0 0.0 1.0 0.0 0.0 1.0 1.0 0.0
8
0.0 1.0 1.0 0.0 0.0 1.0 1.0 0.0
4
0.675098 0.324902 0.413725 0.586275
8
0.0 1.0 0.0 1.0 1.0 0.0 0.0 1.0
8
1.0 0.0 1.0 0.0 1.0 0.0 0.0 1.0
8
1.0 0.0 0.0 1.0 0.0 1.0 0.0 1.0
8
1.0 0.0 1.0 0.0 1.0 0.0 0.0 1.0
8
0.0 1.0 1.0 0.0 1.0 0.0 0.0 1.0
8
0.15993 0.84007 0.0796489 0.920351 0.594495 0.405505 0.573656 0.426344
8
0.0 1.0 0.0 1.0 1.0 0.0 1.0 0.0
8
0.0 1.0 0.0 1.0 0.0 1.0 1.0 0.0
8
0.0 1.0 0.0 1.0 1.0 0.0 0.0 1.0
8
0.0 1.0 1.0 0.0 0.0 1.0 0.0 1.0
8
0.0 1.0 1.0 0.0 0.0 1.0 0.0 1.0
8
1.0 0.0 0.0 1.0 0.0 1.0 1.0 0.0
8
1.0 0.0 1.0 0.0 0.0 1.0 0.0 1.0
8
0.0 1.0 0.0 1.0 1.0 0.0 0.0 1.0
8
1.0 0.0 1.0 0.0 0.0 1.0 0.0 1.0
8
0.0 1.0 0.0 1.0 1.0 0.0 0.0 1.0
8
0.926287 0.0737132 0.110526 0.889474 0.939753 0.0602466 0.0591878 0.940812
8
0.990484 0.00951614 0.352019 0.647981 0.909175 0.0908253 0.635709 0.364291
4
1.0 0.0 0.0 1.0
8
0.0 1.0 1.0 0.0 1.0 0.0 0.0 1.0
8
0.0453743 0.954626 0.520397 0.479603 0.37035 0.62965 0.0528933 0.947107
8
0.76679 0.23321 0.392654 0.607346 0.935095 0.0649048 0.959721 0.0402786
8
0.0 1.0 0.0 1.0 1.0 0.0 0.0 1.0
8
0.0 1.0 0.0 1.0 0.0 1.0 1.0 0.0
8
0.850005 0.149995 0.765307 0.234693 0.52843 0.47157 0.0685115 0.931489
8
0.0 1.0 0.0 1.0 1.0 0.0 1.0 0.0
8
0.299238 0.700762 0.653954 0.346046 0.364811 0.635189 0.669588 0.330412
8
1.0 0.0 1.0 0.0 0.0 1.0 1.0 0.0
8
1.0 0.0 0.0 1.0 1.0 0.0 1.0 0.0
8
1.0 0.0 1.0 0.0 1.0 0.0 0.0 1.0
8
1.0 0.0 1.0 0.0 0.0 1.0 1.0 0.0
8
0.250836 0.749164 0.933897 0.0661027 0.268353 0.731647 0.859416 0.140584
8
0.567591 0.432409 0.51337 0.48663 0.143124 0.856876 0.237179 0.762821
8
1.0 0.0 0.0 1.0 0.0 1.0 0.0 1.0
8
0.0 1.0 1.0 0.0 1.0 0.0 1.0 0.0
8
1.0 0.0 0.0 1.0 0.0 1.0 0.0 1.0
8
1.0 0.0 1.0 0.0 0.0 1.0 1.0 0.0